feasible solution found by trivial heuristic after 0.1 seconds, objective value -1.722894e+06
presolving:
(round 1, fast)       27432 del vars, 25657 del conss, 0 add conss, 0 chg bounds, 0 chg sides, 0 chg coeffs, 0 upgd conss, 0 impls, 1775 clqs
   (0.3s) running MILP presolver
   (0.4s) MILP presolver (2 rounds): 0 aggregations, 1862 fixings, 0 bound changes
(round 2, medium)     29294 del vars, 31156 del conss, 3637 add conss, 0 chg bounds, 0 chg sides, 0 chg coeffs, 0 upgd conss, 0 impls, 1775 clqs
(round 3, exhaustive) 29294 del vars, 31247 del conss, 3637 add conss, 0 chg bounds, 0 chg sides, 0 chg coeffs, 0 upgd conss, 0 impls, 3546 clqs
(round 4, exhaustive) 29294 del vars, 31247 del conss, 3637 add conss, 0 chg bounds, 0 chg sides, 0 chg coeffs, 3546 upgd conss, 0 impls, 3546 clqs
   (0.5s) probing: 51/138 (37.0%) - 0 fixings, 0 aggregations, 0 implications, 0 bound changes
   (0.5s) probing aborted: 50/50 successive totally useless probings
   (0.5s) symmetry computation started: requiring (bin +, int -, cont +), (fixed: bin -, int +, cont -)
   (0.5s) no symmetry present
presolving (5 rounds: 5 fast, 4 medium, 3 exhaustive):
 29294 deleted vars, 31247 deleted constraints, 3637 added constraints, 0 tightened bounds, 0 added holes, 0 changed sides, 0 changed coefficients
 0 implications, 3546 cliques
presolved problem has 138 variables (138 bin, 0 int, 0 impl, 0 cont) and 3546 constraints
   3546 constraints of type <setppc>
Presolving Time: 0.38

 time | node  | left  |LP iter|LP it/n|mem/heur|mdpt |vars |cons |rows |cuts |sepa|confs|strbr|  dualbound   | primalbound  |  gap   | compl. 
t 0.5s|     1 |     0 |     0 |     - | trivial|   0 | 138 |3546 |   0 |   0 |  0 |   0 |   0 |-1.420690e+06 |-1.503406e+06 |   5.82%| unknown
p 0.5s|     1 |     0 |     0 |     - |  clique|   0 | 138 |3546 |3546 |   0 |  0 |   0 |   0 |-1.420690e+06 |-1.490625e+06 |   4.92%| unknown
  0.6s|     1 |     0 |   717 |     - |   109M |   0 | 138 |3546 |3546 |   0 |  0 |   0 |   0 |-1.480707e+06 |-1.490625e+06 |   0.67%| unknown
  0.6s|     1 |     0 |   841 |     - |   111M |   0 | 138 |3546 |3547 |   1 |  1 |   0 |   0 |-1.480833e+06 |-1.490625e+06 |   0.66%| unknown
  0.6s|     1 |     0 |   899 |     - |   112M |   0 | 138 |3546 |3548 |   2 |  2 |   0 |   0 |-1.480863e+06 |-1.490625e+06 |   0.66%| unknown
  0.7s|     1 |     0 |  1014 |     - |   113M |   0 | 138 |3546 |3549 |   3 |  3 |   0 |   0 |-1.480900e+06 |-1.490625e+06 |   0.66%| unknown
  0.8s|     1 |     0 |  1181 |     - |   114M |   0 | 138 |3546 |3551 |   5 |  4 |   0 |   0 |-1.480956e+06 |-1.490625e+06 |   0.65%| unknown
  0.8s|     1 |     0 |  1264 |     - |   115M |   0 | 138 |3546 |3552 |   6 |  5 |   0 |   0 |-1.480969e+06 |-1.490625e+06 |   0.65%| unknown
  0.9s|     1 |     0 |  1341 |     - |   117M |   0 | 138 |3546 |3553 |   7 |  6 |   0 |   0 |-1.480986e+06 |-1.490625e+06 |   0.65%| unknown
  0.9s|     1 |     0 |  1424 |     - |   118M |   0 | 138 |3546 |3554 |   8 |  7 |   0 |   0 |-1.480997e+06 |-1.490625e+06 |   0.65%| unknown
  1.0s|     1 |     0 |  1524 |     - |   119M |   0 | 138 |3546 |3555 |   9 |  8 |   0 |   0 |-1.481008e+06 |-1.490625e+06 |   0.65%| unknown
  1.0s|     1 |     0 |  1725 |     - |   119M |   0 | 138 |3546 |3559 |  13 |  9 |   0 |   0 |-1.481049e+06 |-1.490625e+06 |   0.65%| unknown
  1.1s|     1 |     0 |  1812 |     - |   121M |   0 | 138 |3546 |3560 |  14 | 10 |   0 |   0 |-1.481072e+06 |-1.490625e+06 |   0.64%| unknown
  1.1s|     1 |     0 |  1886 |     - |   121M |   0 | 138 |3546 |3562 |  16 | 11 |   0 |   0 |-1.481096e+06 |-1.490625e+06 |   0.64%| unknown
  1.1s|     1 |     0 |  1955 |     - |   122M |   0 | 138 |3546 |3563 |  17 | 12 |   0 |   0 |-1.481123e+06 |-1.490625e+06 |   0.64%| unknown
 time | node  | left  |LP iter|LP it/n|mem/heur|mdpt |vars |cons |rows |cuts |sepa|confs|strbr|  dualbound   | primalbound  |  gap   | compl. 
  1.2s|     1 |     0 |  2103 |     - |   122M |   0 | 138 |3546 |3566 |  20 | 13 |   0 |   0 |-1.481183e+06 |-1.490625e+06 |   0.64%| unknown
  1.2s|     1 |     0 |  2198 |     - |   122M |   0 | 138 |3546 |3567 |  21 | 14 |   0 |   0 |-1.481233e+06 |-1.490625e+06 |   0.63%| unknown
  1.2s|     1 |     0 |  2275 |     - |   123M |   0 | 138 |3546 |3568 |  22 | 15 |   0 |   0 |-1.481252e+06 |-1.490625e+06 |   0.63%| unknown
  1.3s|     1 |     0 |  2336 |     - |   123M |   0 | 138 |3546 |3569 |  23 | 16 |   0 |   0 |-1.481273e+06 |-1.490625e+06 |   0.63%| unknown
  1.3s|     1 |     0 |  2483 |     - |   124M |   0 | 138 |3546 |3572 |  26 | 17 |   0 |   0 |-1.481393e+06 |-1.490625e+06 |   0.62%| unknown
d 1.4s|     1 |     0 |  3341 |     - |farkasdi|   0 | 138 |3546 |3572 |   0 | 19 |   0 |   0 |-1.481393e+06 |-1.487327e+06 |   0.40%| unknown
  1.4s|     1 |     0 |  3341 |     - |   124M |   0 | 138 |3546 |3572 |  26 | 19 |   0 |   0 |-1.481393e+06 |-1.487327e+06 |   0.40%| unknown
  3.2s|     1 |     2 |  3341 |     - |   124M |   0 | 138 |3546 |3572 |  26 | 21 |   0 |  29 |-1.481755e+06 |-1.487327e+06 |   0.38%| unknown
* 7.5s|    12 |     5 |  5488 | 273.2 |strongbr|   5 | 138 |3552 |3562 |  26 |  1 |   6 | 240 |-1.481946e+06 |-1.487182e+06 |   0.35%|  12.11%
* 7.5s|    12 |     5 |  5488 | 273.2 |strongbr|   5 | 138 |3553 |3562 |  26 |  1 |   7 | 246 |-1.481946e+06 |-1.486954e+06 |   0.34%|  12.11%
*14.7s|    75 |     6 | 12665 | 137.6 |    LP  |  10 | 138 |3548 |3562 |  41 |  1 |  73 | 599 |-1.481946e+06 |-1.486075e+06 |   0.28%|  53.44%
 15.2s|   100 |     5 | 14127 | 117.6 |   128M |  10 | 138 |3548 |3562 |  48 |  0 |  73 | 603 |-1.481946e+06 |-1.486075e+06 |   0.28%|  59.75%
 19.4s|   200 |    11 | 23378 | 105.0 |   133M |  13 | 138 |3553 |3562 | 105 |  0 |  78 | 615 |-1.482555e+06 |-1.486075e+06 |   0.24%|  68.87%
 21.9s|   300 |     9 | 33931 | 105.2 |   136M |  21 | 138 |3561 |3572 | 148 |  0 |  86 | 631 |-1.483877e+06 |-1.486075e+06 |   0.15%|  74.81%

SCIP Status        : problem is solved [optimal solution found]
Solving Time (sec) : 23.08
Solving Nodes      : 383
Primal Bound       : -1.48607538425321e+06 (289 solutions)
Dual Bound         : -1.48607538425321e+06
Gap                : 0.00 %
Solve Status: optimal
Solve Time: 23.10 seconds
